62      4       
23      16      14      35      
0       0       0       0       0       3       2       3       4       
10      6       0       0       0       3       5       13      17      
8       0       0       0       5       3       9       11      14      
6       0       0       5       0       3       5       8       10      
9       4       0       0       0       3       6       9       11      
7       0       0       0       5       3       7       12      24      
9       0       0       3       0       3       34      39      47      
10      0       3       0       0       1       15      
7       0       0       5       0       3       16      21      28      
8       5       0       0       0       3       19      38      47      
4       0       0       0       4       2       18      22      
5       0       2       0       0       3       18      22      36      
1       8       0       0       0       3       25      26      27      
1       0       5       0       0       2       25      27      
1       0       7       0       0       3       20      35      55      
1       0       0       1       0       3       22      26      34      
4       4       0       0       0       3       37      45      47      
7       0       8       0       0       2       29      40      
10      0       3       0       0       3       23      30      54      
8       9       0       0       0       3       32      42      52      
1       10      0       0       0       3       27      31      42      
8       10      0       0       0       2       44      58      
3       0       8       0       0       3       26      41      44      
5       0       0       0       7       3       34      38      40      
5       10      0       0       0       3       37      39      56      
6       0       0       0       10      3       32      40      43      
8       0       2       0       0       3       30      38      45      
5       0       0       0       10      2       29      33      
6       0       0       5       0       3       30      37      42      
3       0       0       3       0       3       43      48      52      
3       0       0       0       8       3       46      48      54      
6       9       0       0       0       2       39      56      
5       0       0       4       0       1       43      
7       1       0       0       0       2       35      53      
7       0       0       0       5       1       49      
9       0       0       6       0       3       45      49      54      
5       0       2       0       0       2       41      46      
5       0       7       0       0       3       41      44      51      
10      0       0       0       2       2       49      51      
6       0       0       0       4       1       53      
8       0       0       7       0       1       48      
1       0       0       8       0       1       46      
10      0       5       0       0       2       50      59      
9       0       0       0       2       2       52      60      
7       0       0       0       3       2       50      56      
6       0       0       4       0       2       51      59      
4       0       0       3       0       1       55      
2       0       7       0       0       2       50      60      
6       0       0       0       8       2       60      61      
6       0       2       0       0       2       53      55      
3       10      0       0       0       1       61      
1       0       0       0       1       1       59      
10      0       0       0       6       1       57      
2       0       0       0       4       1       57      
3       0       0       0       5       1       57      
5       0       9       0       0       1       58      
3       0       0       10      0       1       58      
6       0       1       0       0       1       61      
4       0       0       0       9       1       62      
1       7       0       0       0       1       62      
1       6       0       0       0       1       62      
0       0       0       0       0       0       